;  time  = 600
;  terms = 159
;  score = 0.171875
(set-logic QF_FP)
(declare-const x0 (_ FloatingPoint 8 24))
(declare-const x1 (_ FloatingPoint 8 24))
(declare-const x2 (_ FloatingPoint 8 24))
(declare-const x3 (_ FloatingPoint 8 24))
(declare-const x4 (_ FloatingPoint 8 24))
(declare-const x5 (_ FloatingPoint 8 24))
(declare-const x6 (_ FloatingPoint 8 24))
(declare-const x7 (_ FloatingPoint 8 24))
(declare-const x8 (_ FloatingPoint 8 24))
(declare-const x9 (_ FloatingPoint 8 24))
(declare-const x10 (_ FloatingPoint 8 24))
(declare-const x11 (_ FloatingPoint 8 24))
(declare-const x12 (_ FloatingPoint 8 24))
(declare-const x13 (_ FloatingPoint 8 24))
(declare-const x14 (_ FloatingPoint 8 24))
(assert (fp.lt (fp.mul RNE (fp.sub RNE (fp.add RNE (fp.sub RNE (fp.mul RNE (fp.add RNE x6 (fp.abs (fp.mul RNE (fp.mul RNE x8 x9) (fp.neg x14)))) (fp.abs (fp.sub RNE (fp.neg (fp.mul RNE x13 x11)) (fp.neg (fp.sub RNE x4 x14))))) (fp.mul RNE (fp.sub RNE (fp.neg (fp.neg (fp.neg x1))) x14) (fp.mul RNE x12 (fp.add RNE (fp.neg (fp.add RNE x14 x13)) (fp.abs (fp.abs x7)))))) x14) (fp.abs (fp.neg (fp.abs (fp.add RNE x1 (fp.sub RNE (fp.add RNE (fp.mul RNE x11 x3) (fp.sub RNE x3 x13)) (fp.mul RNE (fp.add RNE x14 x12) (fp.abs x0)))))))) x13) (fp.neg (fp.mul RNE (fp.sub RNE (fp.add RNE (fp.sub RNE (fp.abs (fp.sub RNE x14 x1)) (fp.add RNE (fp.mul RNE x10 (fp.mul RNE x13 (fp.neg x13))) (fp.mul RNE (fp.neg (fp.add RNE x3 x2)) (fp.sub RNE x13 x2)))) (fp.mul RNE (fp.abs (fp.neg (fp.mul RNE x4 (fp.abs x1)))) (fp.sub RNE (fp.mul RNE (fp.sub RNE x1 (fp.sub RNE x1 x6)) (fp.neg (fp.sub RNE x8 x0))) (fp.sub RNE (fp.neg (fp.neg x1)) x4)))) (fp.sub RNE x6 (fp.mul RNE (fp.mul RNE (fp.add RNE (fp.neg (fp.sub RNE x10 x6)) (fp.neg x11)) (fp.neg (fp.mul RNE (fp.abs x7) (fp.sub RNE x9 x12)))) x7))) (fp.neg (fp.sub RNE (fp.add RNE (fp.add RNE (fp.neg x1) (fp.abs (fp.neg (fp.mul RNE x0 x3)))) (fp.mul RNE (fp.neg (fp.sub RNE (fp.mul RNE x9 x11) (fp.mul RNE x10 x1))) (fp.add RNE (fp.sub RNE (fp.add RNE x1 x5) (fp.mul RNE x0 x12)) x7))) x2))))))
(check-sat)